# covering.dat

param n := 4;
param m := 7;

param : b f :=
  1  100 140
  2  200 210
  3  150 170
  4  300 495
;

param d :=
  1  30
  2  70
  3  50
  4  90
  5  80
  6  35
  7  40
;

param c :=
  1 1   9
  1 2   9
  1 3  12 
  1 4  14
  1 5  11
  2 1   8
  2 3   5
  2 4  16
  2 5  15
  3 3  21
  3 4  18
  3 5  17
  3 6   4 
  3 7   6
  4 5  14
  4 6   9
  4 7   8
;
